54
75
60	11
59	13
58	13
57	8
56	8
55	8
54	12
53	9
52	7
51	9
50	5
49	3
48	14
47	11
46	12
45	11
44	10
43	5
42	13
41	6
40	6
39	8
38	11
37	12
36	14
35	7
34	11
33	9
32	6
31	7
30	7
29	17
28	11
27	12
26	12
25	7
24	7
23	9
22	6
21	8
20	9
19	9
18	9
17	4
16	12
15	6
14	9
13	11
12	7
11	10
10	11
9	10
8	10
7	8
